1 - 0
2 - 0
3 - 0
4 - 0
5 - 0
6 - 0
7 - 0
8 - 0
9 - 0
10 - 0
11 - 0
12 - 0
13 - 0
14 - 0
15 - 0
16 - 0
17 - 0
18 - 0
19 - 0
20 - 0
21 - 0
22 - 0
23 - 0
24 - 0
25 - 0
26 - 0
27 - 0
28 - 0
29 - 0
30 - 0
31 - 0
32 - 0
33 - 0
34 - 0
35 - 0
36 - 0
37 - 0
38 - 0
39 - 0
40 - 0
41 - 0
42 - 0
43 - 0
44 - 0
45 - 0
46 - 0
47 - 0
48 - 0
49 - 0
50 - 0
51 - 0
52 - 0
53 - 0
54 - 0
55 - 0
56 - 0
57 - 0
58 - 0
59 - 0
60 - 0
61 - 0
62 - 0
63 - 0
64 - 0
65 - 0
66 - 0
67 - 0
68 - 0
69 - 0
70 - 0
71 - 0
72 - 0
73 - 0
74 - 0
75 - 0
76 - 0
77 - 0
78 - 0
79 - 0
80 - 0
81 - 0
82 - 0
83 - 0
84 - 0
85 - 0
86 - 0
87 - 0
88 - 0
89 - 0
90 - 0
91 - 0
92 - 0
93 - 0
94 - 0
95 - 0
96 - 0
97 - 0
98 - 0
99 - 0
100 - 0
101 - 0
102 - 0
103 - 0
104 - 0
105 - 0
106 - 0
107 - 0
108 - 0
109 - 0
110 - 0
111 - 0
112 - 0
113 - 0
114 - 0
115 - 0
116 - 0
117 - 0
118 - 0
119 - 0
120 - 0
121 - 0
122 - 0
123 - 0
124 - 0
125 - 0
126 - 0
127 - 0
128 - 0
129 - 0
130 - 0
131 - 0
132 - 0
133 - 0
134 - 0
135 - 0
136 - 0
137 - 0
138 - 0
139 - 0
140 - 0
141 - 0
142 - 0
143 - 0
144 - 0
145 - 0
146 - 0
147 - 0
148 - 0
149 - 0
150 - 0
151 - 0
152 - 0
153 - 0
154 - 0
155 - 0
156 - 0
157 - 0
158 - 0
159 - 0
160 - 1
161 - 0
162 - 3
163 - 13
164 - 19
165 - 45
166 - 88
167 - 121
168 - 256
169 - 409
170 - 629
171 - 917
172 - 1383
173 - 1755
174 - 2290
175 - 2916
176 - 3247
177 - 3726
178 - 4058
179 - 4307
180 - 4419
181 - 4622
182 - 4896
183 - 4677
184 - 4515
185 - 4368
186 - 4153
187 - 3842
188 - 3585
189 - 3175
190 - 2865
191 - 2711
192 - 2580
193 - 2269
194 - 2072
195 - 1910
196 - 1730
197 - 1615
198 - 1376
199 - 1278
200 - 1209
201 - 1146
202 - 1100
203 - 1050
204 - 1059
205 - 1007
206 - 965
207 - 951
208 - 907
209 - 977
210 - 979
211 - 895
212 - 921
213 - 919
214 - 884
215 - 851
216 - 813
217 - 879
218 - 806
219 - 767
220 - 745
221 - 755
222 - 779
223 - 740
224 - 666
225 - 701
226 - 700
227 - 662
228 - 659
229 - 636
230 - 605
231 - 578
232 - 635
233 - 574
234 - 588
235 - 515
236 - 554
237 - 514
238 - 519
239 - 468
240 - 473
241 - 476
242 - 463
243 - 449
244 - 445
245 - 438
246 - 436
247 - 391
248 - 373
249 - 376
250 - 376
251 - 364
252 - 367
253 - 368
254 - 358
255 - 374
256 - 323
257 - 299
258 - 333
259 - 325
260 - 283
261 - 289
262 - 296
263 - 292
264 - 269
265 - 271
266 - 296
267 - 252
268 - 254
269 - 263
270 - 257
271 - 259
272 - 270
273 - 233
274 - 233
275 - 265
276 - 229
277 - 206
278 - 239
279 - 208
280 - 203
281 - 242
282 - 215
283 - 194
284 - 200
285 - 189
286 - 186
287 - 200
288 - 206
289 - 197
290 - 233
291 - 171
292 - 194
293 - 178
294 - 170
295 - 170
296 - 175
297 - 190
298 - 162
299 - 156
300 - 193
301 - 145
302 - 164
303 - 153
304 - 159
305 - 170
306 - 141
307 - 182
308 - 157
309 - 145
310 - 166
311 - 153
312 - 143
313 - 147
314 - 146
315 - 164
316 - 156
317 - 142
318 - 160
319 - 152
320 - 162
321 - 142
322 - 165
323 - 128
324 - 161
325 - 127
326 - 168
327 - 141
328 - 146
329 - 132
330 - 136
331 - 140
332 - 131
333 - 118
334 - 118
335 - 130
336 - 100
337 - 126
338 - 87
339 - 86
340 - 86
341 - 79
342 - 61
343 - 71
344 - 50
345 - 42
346 - 24
347 - 14
348 - 10
349 - 7
350 - 0

0.1 - 94308
0.2 - 24404
0.3 - 9905
0.4 - 5131
0.5 - 3091
0.6 - 2089
0.7 - 1500
0.8 - 1201
0.9 - 1027
1 - 891
